job_count = 26 ;
duration = [|7, 16, 6|23, 6, 7|12, 9, 1|21, 6, 1|4, 3, 4|28, 7, 5|10, 11, 3|20, 2, 2|5, 12, 5|14, 2, 5|20, 10, 1|5, 13, 8|28, 13, 1|9, 8, 9|20, 8, 6|20, 16, 4|5, 3, 3|19, 4, 5|22, 18, 9|3, 4, 5|19, 9, 8|24, 19, 6|16, 3, 8|15, 7, 4|5, 9, 7|26, 17, 9|] ;
machine_count = 3 ;
cost = [|12, 21, 56|15, 38, 38|12, 27, 36|12, 27, 43|19, 35, 36|12, 28, 30|16, 27, 52|11, 22, 55|13, 27, 49|17, 26, 46|11, 29, 44|13, 36, 38|10, 35, 34|14, 38, 43|18, 34, 56|16, 24, 43|16, 34, 37|16, 29, 47|19, 28, 49|15, 39, 47|14, 34, 30|13, 37, 58|15, 24, 58|15, 21, 54|13, 29, 42|10, 37, 43|] ;
deadline = [58, 58, 58, 58, 58, 58, 58, 58, 58, 58, 58, 58, 58, 58, 58, 58, 58, 58, 58, 58, 58, 58, 58, 58, 58, 58] ;
release = [0, 0, 0, 0, 0, 0, 0, 0, 0, 0, 0, 0, 0, 0, 0, 0, 0, 0, 0, 0, 0, 0, 0, 0, 0, 0] ;
resource = [|9, 9, 9|4, 4, 4|4, 4, 4|3, 3, 3|3, 3, 3|9, 9, 9|4, 4, 4|9, 9, 9|1, 1, 1|6, 6, 6|3, 3, 3|6, 6, 6|5, 5, 5|5, 5, 5|2, 2, 2|8, 8, 8|3, 3, 3|2, 2, 2|6, 6, 6|6, 6, 6|9, 9, 9|5, 5, 5|4, 4, 4|9, 9, 9|7, 7, 7|7, 7, 7|] ;
capacities = [10, 10, 10] ;
